<number of tasks>
100

<cycle time>
1000

<order strength>
0.601


<task times>
1 242
2 99
3 220
4 534
5 55
6 490
7 91
8 282
9 232
10 232
11 159
12 270
13 342
14 102
15 307
16 545
17 307
18 225
19 348
20 286
21 542
22 99
23 92
24 189
25 575
26 36
27 161
28 84
29 168
30 115
31 128
32 139
33 206
34 518
35 188
36 261
37 542
38 428
39 58
40 51
41 243
42 258
43 185
44 336
45 287
46 152
47 140
48 247
49 84
50 531
51 443
52 371
53 148
54 26
55 31
56 157
57 291
58 227
59 241
60 123
61 207
62 74
63 63
64 193
65 84
66 425
67 187
68 46
69 121
70 150
71 225
72 172
73 519
74 208
75 28
76 187
77 127
78 89
79 168
80 412
81 56
82 30
83 498
84 149
85 221
86 332
87 133
88 198
89 57
90 335
91 66
92 229
93 177
94 330
95 354
96 400
97 527
98 214
99 208
100 187

<precedence relations>
1,9
2,7
2,12
3,8
3,11
3,12
3,13
4,10
4,13
5,11
5,12
5,13
6,20
6,21
7,14
8,16
9,20
10,18
11,15
11,29
11,30
11,34
12,17
12,19
12,20
12,21
13,19
13,20
14,27
15,23
16,24
17,25
18,26
19,22
19,27
19,36
20,27
20,28
20,29
20,35
21,27
21,28
21,30
22,32
23,31
24,33
25,34
26,35
27,54
27,55
28,33
28,34
28,36
29,33
30,33
30,35
30,36
31,37
32,39
33,38
33,40
33,42
34,41
34,42
34,43
35,63
35,69
35,70
35,72
36,50
36,70
37,44
38,45
39,47
40,48
41,46
41,49
41,50
41,62
42,49
42,50
42,51
43,50
43,51
44,54
45,55
46,52
47,53
48,56
49,54
50,57
50,63
50,72
51,55
51,56
51,57
51,62
52,58
53,59
54,60
55,60
56,60
57,78
57,94
58,61
59,62
60,63
60,64
60,65
60,66
60,70
61,67
62,68
62,70
62,71
62,73
62,79
63,68
63,71
63,73
64,72
64,76
65,69
65,85
65,94
66,68
66,69
66,73
67,75
68,74
68,88
69,78
69,95
70,83
70,92
70,96
71,76
72,79
72,84
73,77
73,78
73,82
73,94
74,80
75,82
76,81
76,83
77,84
77,85
78,92
79,83
79,85
79,91
79,94
80,86
81,87
82,91
83,88
83,90
84,90
85,89
85,90
85,92
85,96
86,93
87,94
89,95
91,96
93,97
94,98
97,99
98,100

<end>
